100
3439
13 121
7 58
57 99
71 193
56 36
8 24
33 105
66 187
27 189
82 136
77 31
24 58
16 187
26 119
95 153
60 168
99 80
6 162
43 49
43 82
3 173
22 63
88 46
43 11
17 76
32 167
96 179
30 88
1 147
94 66
50 140
34 135
58 89
22 44
56 140
66 108
4 166
28 44
77 196
78 189
72 195
71 175
83 15
79 118
48 19
16 85
3 116
23 28
94 184
29 19
42 130
69 192
67 111
12 104
23 93
30 198
4 174
55 162
1 61
45 161
34 28
96 149
26 29
60 176
57 152
55 53
42 139
63 28
92 29
90 169
98 179
74 138
41 29
4 98
35 120
96 141
87 104
53 36
8 96
41 13
43 84
34 53
37 24
46 166
42 26
35 66
90 48
43 156
27 15
54 174
96 177
98 168
50 74
84 51
76 154
2 183
58 33
26 29
79 29
68 67
